\* Problem: Unknown *\

Maximize
 obj: + xp_0_0 + xp_1_0 + xp_1_1 + xp_2_0 + xp_3_0 + xp_4_0 + xp_5_0
 + xp_6_0 + xp_7_0 + xp_8_0 + xp_9_0 + xp_9_1 + xp_10_0 + xp_11_0
 + xp_11_1 + xp_12_0 + xp_12_1 + xp_13_0 + xp_14_0 + xp_14_1 + xp_15_0
 + xp_16_0 + xp_17_0 + xp_17_1 + xp_18_0 + xp_18_1 + xp_19_0 + xp_19_1
 + xp_20_0 + xp_21_0 + xp_22_0 + xp_22_1 + xp_23_0 + xp_24_0 + xp_24_1
 + xp_25_0 + xp_26_0 + xp_27_0 + xp_28_0 + xp_28_1 + xp_29_0 + xp_30_0
 + xp_31_0 + xp_32_0 + xp_33_0 + xp_34_0 + xp_34_1 + xp_35_0 + xp_36_0
 + xp_37_0 + xp_38_0 + xp_39_0 + xp_40_0 + xp_40_1 + xp_41_0 + xp_42_0
 + xp_42_1 + xp_42_2 + xp_43_0 + xp_44_0 + xp_45_0 + xp_46_0 + xp_47_0
 + xp_48_0 + xp_49_0 + xp_50_0 + xp_50_1 + xp_51_0 + xp_52_0 + xp_53_0
 + xp_54_0 + xp_55_0 + xp_56_0 + xp_57_0 + xp_58_0 + xp_58_1 + xp_59_0
 + xp_60_0 + xp_60_1 + xp_61_0 + xp_61_1 + xp_62_0 + xp_63_0 + xp_63_1
 + xp_64_0 + xp_65_0 + xp_65_1 + xp_66_0 + xp_67_0 + xp_68_0 + xp_68_1
 + xp_68_2 + xp_69_0 + xp_70_0 + xp_71_0 + xp_72_0 + xp_73_0 + xp_74_0
 + xp_75_0 + xp_76_0 + xp_77_0 + xp_77_1 + xp_78_0 + xp_78_1 + xp_78_2
 + xp_79_0 + xp_79_1 + xp_79_2 + xp_80_0 + xp_80_1 + xp_81_0 + xp_81_1
 + xp_82_0 + xp_83_0 + xp_84_0 + xp_85_0 + xp_85_1 + xp_86_0 + xp_86_1
 + xp_87_0 + xp_88_0 + xp_89_0 + xp_90_0 + xp_90_1 + xp_91_0 + xp_91_1
 + xp_91_2 + xp_92_0 + xp_93_0 + xp_94_0 + xp_94_1 + xp_95_0 + xp_96_0
 + xp_97_0 + xp_98_0 + xp_99_0 + xp_100_0 + xp_101_0 + xp_102_0
 + xp_103_0 + xp_104_0 + xp_105_0 + xp_106_0 + xp_107_0 + xp_108_0
 + xp_108_1 + xp_108_2 + xp_109_0 + xp_109_1 + xp_110_0 + xp_111_0
 + xp_111_1 + xp_112_0 + xp_113_0 + xp_114_0 + xp_115_0 + xp_115_1
 + xp_116_0 + xp_116_1 + xp_117_0 + xp_118_0 + xp_119_0 + xp_120_0
 + xp_120_1 + xp_121_0 + xp_122_0 + xp_123_0 + xp_124_0 + xp_125_0
 + xp_125_1 + xp_126_0 + xp_126_1 + xp_126_2 + xp_126_3 + xp_127_0
 + xp_127_1 + xp_128_0 + xp_128_1 + xp_129_0 + xp_129_1 + xp_130_0
 + xp_131_0 + xp_131_1 + xp_131_2

Subject To
 r_1: + xp_128_1 + xp_122_0 + xp_121_0 + xp_108_2 + xp_107_0 + xp_78_2
 + xp_40_1 + xp_25_0 + xp_22_1 + xp_18_0 + xp_16_0 + xp_4_0
 <= 39033.1753554502
 r_2: + xp_131_2 + xp_131_1 + xp_127_1 + xp_126_1 + xp_120_0 + xp_94_1
 + xp_93_0 + xp_90_1 + xp_85_1 + xp_85_0 + xp_77_1 + xp_75_0 + xp_71_0
 + xp_66_0 + xp_65_1 + xp_65_0 + xp_61_1 + xp_55_0 + xp_52_0 + xp_48_0
 + xp_42_2 + xp_42_1 + xp_32_0 + xp_28_1 + xp_28_0 + xp_24_0 + xp_19_1
 + xp_19_0 + xp_12_1 + xp_1_1 <= 35616.5025785279
 r_3: + xp_126_3 + xp_114_0 + xp_95_0 + xp_91_1 + xp_79_1 + xp_76_0
 + xp_34_0 <= 40000
 r_4: + xp_117_0 + xp_111_1 + xp_91_2 + xp_91_0 + xp_84_0 + xp_79_2
 + xp_79_0 + xp_46_0 + xp_43_0 + xp_40_1 + xp_40_0 + xp_34_1
 <= 38066.6125101544
 r_5: + xp_130_0 + xp_111_1 + xp_99_0 + xp_86_0 + xp_65_1 + xp_7_0
 + xp_2_0 <= 40000
 r_6: + xp_126_3 + xp_126_2 + xp_119_0 + xp_114_0 + xp_95_0 + xp_91_1
 + xp_83_0 + xp_81_0 + xp_79_1 + xp_70_0 + xp_68_1 + xp_58_1 + xp_53_0
 + xp_45_0 + xp_34_0 + xp_18_0 <= 40000
 r_7: + xp_104_0 + xp_88_0 + xp_82_0 + xp_81_1 + xp_78_1 + xp_50_1
 + xp_44_0 + xp_27_0 + xp_18_1 <= 38066.6125101544
 r_8: + xp_131_2 + xp_131_1 + xp_127_1 + xp_126_1 + xp_120_0 + xp_118_0
 + xp_103_0 + xp_94_1 + xp_90_1 + xp_77_1 + xp_71_0 + xp_61_1 + xp_55_0
 + xp_42_2 + xp_42_1 + xp_32_0 + xp_24_0 + xp_12_1 + xp_1_1
 <= 39033.1753554502
 r_9: + xp_131_0 + xp_127_0 + xp_122_0 + xp_120_1 + xp_108_2 + xp_78_2
 + xp_77_0 + xp_42_0 + xp_33_0 + xp_24_1 <= 40000
 r_10: + xp_111_1 + xp_106_0 + xp_99_0 + xp_98_0 + xp_94_1 + xp_88_0
 + xp_86_0 + xp_85_0 + xp_78_1 + xp_65_1 + xp_50_1 + xp_26_0 + xp_24_0
 + xp_8_0 + xp_7_0 + xp_2_0 <= 40000
 r_11: + xp_119_0 + xp_112_0 + xp_111_0 + xp_95_0 + xp_91_1 + xp_81_0
 + xp_79_1 + xp_78_2 + xp_78_0 + xp_59_0 + xp_53_0 + xp_50_0 + xp_49_0
 + xp_45_0 + xp_34_0 + xp_18_0 + xp_4_0 + xp_3_0 <= 36907.0825211176
 r_12: + xp_129_0 + xp_128_0 + xp_123_0 + xp_117_0 + xp_111_1 + xp_108_1
 + xp_101_0 + xp_91_2 + xp_82_0 + xp_81_1 + xp_80_1 + xp_79_2 + xp_78_1
 + xp_78_0 + xp_73_0 + xp_63_1 + xp_60_0 + xp_50_1 + xp_46_0 + xp_44_0
 + xp_40_0 + xp_18_1 + xp_17_1 + xp_15_0 + xp_14_1 + xp_13_0 + xp_9_0
 <= 36841.7680973735
 r_13: + xp_129_1 + xp_128_1 + xp_120_1 + xp_109_1 + xp_100_0 + xp_91_0
 + xp_90_0 + xp_80_0 + xp_79_0 + xp_68_0 + xp_63_0 + xp_60_1 + xp_40_1
 + xp_34_1 + xp_31_0 + xp_30_0 + xp_17_0 + xp_9_1 <= 36907.0825211176
 r_14: + xp_131_2 + xp_131_1 + xp_131_0 + xp_126_3 + xp_126_2 + xp_125_1
 + xp_125_0 + xp_124_0 + xp_115_1 + xp_115_0 + xp_94_0 + xp_86_1
 + xp_85_1 + xp_77_1 + xp_77_0 + xp_68_1 + xp_65_0 + xp_58_1 + xp_56_0
 + xp_51_0 + xp_41_0 + xp_38_0 + xp_35_0 + xp_24_1 + xp_20_0 + xp_19_1
 + xp_19_0 + xp_12_1 + xp_12_0 + xp_0_0 <= 38066.6125101544
 r_15: + xp_131_2 + xp_131_0 + xp_126_3 + xp_126_2 + xp_125_0 + xp_124_0
 + xp_120_1 + xp_116_0 + xp_115_0 + xp_109_1 + xp_94_0 + xp_90_0
 + xp_89_0 + xp_86_1 + xp_85_1 + xp_77_1 + xp_77_0 + xp_68_1 + xp_68_0
 + xp_65_0 + xp_58_1 + xp_51_0 + xp_42_2 + xp_42_0 + xp_38_0 + xp_36_0
 + xp_28_1 + xp_24_1 + xp_19_1 + xp_12_0 + xp_11_0 + xp_0_0
 <= 36841.7680973735
 r_16: + xp_128_0 + xp_123_0 + xp_108_1 + xp_108_0 + xp_78_1 + xp_78_0
 + xp_73_0 + xp_67_0 + xp_57_0 + xp_46_0 + xp_44_0 + xp_40_0 + xp_22_0
 + xp_18_1 + xp_13_0 + xp_6_0 <= 36841.7680973735
 r_17: + xp_129_0 + xp_126_0 + xp_111_1 + xp_109_0 + xp_97_0 + xp_91_2
 + xp_81_1 + xp_80_1 + xp_79_2 + xp_68_2 + xp_63_1 + xp_62_0 + xp_61_0
 + xp_60_0 + xp_47_0 + xp_22_1 + xp_17_1 + xp_9_0 + xp_1_0
 <= 35616.5025785279
 r_18: + xp_126_1 + xp_126_0 + xp_106_0 + xp_99_0 + xp_98_0 + xp_94_1
 + xp_92_0 + xp_86_0 + xp_85_0 + xp_68_2 + xp_68_0 + xp_65_1 + xp_58_0
 + xp_48_0 + xp_32_0 + xp_30_0 + xp_26_0 + xp_24_0 + xp_5_0 + xp_2_0
 <= 36907.0825211176
 r_19: + xp_131_1 + xp_125_1 + xp_116_1 + xp_115_1 + xp_110_0 + xp_108_1
 + xp_78_0 + xp_56_0 + xp_42_1 + xp_28_0 + xp_19_0 + xp_14_1 + xp_12_1
 + xp_11_1 + xp_3_0 <= 36907.0825211176
 r_20: + xp_129_1 + xp_128_1 + xp_119_0 + xp_112_0 + xp_111_0 + xp_108_2
 + xp_108_0 + xp_107_0 + xp_95_0 + xp_91_1 + xp_91_0 + xp_81_0 + xp_80_0
 + xp_79_1 + xp_79_0 + xp_78_2 + xp_69_0 + xp_64_0 + xp_63_0 + xp_60_1
 + xp_50_0 + xp_49_0 + xp_45_0 + xp_40_1 + xp_18_0 + xp_17_0 + xp_14_0
 + xp_10_0 + xp_9_1 + xp_4_0 <= 35616.5025785279
 r_21: + xp_126_3 + xp_113_0 + xp_86_1 + xp_77_1 + xp_77_0 + xp_65_0
 + xp_38_0 + xp_20_0 + xp_0_0 <= 38066.6125101544
 r_22: + xp_126_2 + xp_124_0 + xp_105_0 + xp_94_0 + xp_85_1 + xp_83_0
 + xp_68_1 + xp_58_1 + xp_41_0 + xp_24_1 <= 38066.6125101544
 r_23: + xp_128_1 + xp_128_0 + xp_117_0 + xp_111_1 + xp_104_0 + xp_100_0
 + xp_91_2 + xp_91_0 + xp_84_0 + xp_82_0 + xp_81_1 + xp_80_1 + xp_80_0
 + xp_79_2 + xp_79_0 + xp_78_1 + xp_73_0 + xp_60_1 + xp_60_0 + xp_50_1
 + xp_46_0 + xp_44_0 + xp_40_1 + xp_40_0 + xp_34_1 + xp_21_0 + xp_18_1
 + xp_15_0 + xp_9_1 + xp_9_0 <= 38066.6125101544
 r_24: + xp_128_0 + xp_126_1 + xp_103_0 + xp_94_1 + xp_90_1 + xp_61_1
 + xp_40_0 + xp_39_0 + xp_22_0 + xp_18_1 + xp_13_0 + xp_12_1 + xp_1_1
 <= 40000
 r_25: + xp_131_0 + xp_127_0 + xp_126_3 + xp_126_2 + xp_126_0 + xp_120_1
 + xp_94_0 + xp_90_0 + xp_89_0 + xp_77_0 + xp_74_0 + xp_61_0 + xp_42_0
 + xp_38_0 + xp_24_1 + xp_12_0 + xp_1_0 <= 36841.7680973735
 r_26: + xp_128_1 + xp_121_0 + xp_112_0 + xp_108_2 + xp_107_0 + xp_81_1
 + xp_81_0 + xp_79_2 + xp_79_1 + xp_79_0 + xp_78_2 + xp_64_0 + xp_60_1
 + xp_60_0 + xp_47_0 + xp_40_1 + xp_37_0 + xp_29_0 + xp_25_0 + xp_22_1
 + xp_18_0 + xp_17_1 + xp_17_0 + xp_4_0 <= 35616.5025785279
 r_27: + xp_131_2 + xp_127_1 + xp_125_0 + xp_116_0 + xp_115_0 + xp_108_0
 + xp_86_1 + xp_85_1 + xp_77_1 + xp_72_0 + xp_67_0 + xp_65_0 + xp_58_1
 + xp_57_0 + xp_52_0 + xp_50_0 + xp_42_2 + xp_28_1 + xp_23_0 + xp_19_1
 + xp_14_0 + xp_11_0 <= 35616.5025785279
 r_28: + xp_131_1 + xp_126_1 + xp_126_0 + xp_125_1 + xp_120_0 + xp_116_1
 + xp_115_1 + xp_109_0 + xp_99_0 + xp_98_0 + xp_96_0 + xp_94_1 + xp_92_0
 + xp_90_1 + xp_86_0 + xp_85_0 + xp_75_0 + xp_68_2 + xp_65_1 + xp_58_0
 + xp_54_0 + xp_48_0 + xp_42_1 + xp_32_0 + xp_28_0 + xp_26_0 + xp_24_0
 + xp_19_0 + xp_12_1 + xp_11_1 <= 35616.5025785279
 r_29: + xp_129_1 + xp_129_0 + xp_95_0 + xp_93_0 + xp_87_0 + xp_71_0
 + xp_62_0 + xp_49_0 + xp_45_0 + xp_10_0 + xp_9_1 + xp_9_0 + xp_1_1
 + xp_1_0 <= 35616.5025785279
 r_30: + xp_125_1 + xp_125_0 + xp_121_0 + xp_102_0 + xp_99_0 + xp_96_0
 + xp_92_0 + xp_57_0 + xp_37_0 + xp_26_0 + xp_23_0 + xp_11_1 + xp_11_0
 <= 35616.5025785279

Bounds
 0 <= xp_0_0 <= 234.846625364419
 0 <= xp_1_0 <= 151.425780321099
 0 <= xp_1_1 <= 30.2851560642198
 0 <= xp_2_0 <= 114.471329961149
 0 <= xp_3_0 <= 181.448537921225
 0 <= xp_4_0 <= 785.161804186239
 0 <= xp_5_0 <= 1078.2608885796
 0 <= xp_6_0 <= 1783.45676083309
 0 <= xp_7_0 <= 635.266681572357
 0 <= xp_8_0 <= 1502.62480463614
 0 <= xp_9_0 <= 71.8097130071465
 0 <= xp_9_1 <= 35.9048565035733
 0 <= xp_10_0 <= 54.5788805316193
 0 <= xp_11_0 <= 34.43979841238
 0 <= xp_11_1 <= 6.88795968247599
 0 <= xp_12_0 <= 1714.50063112297
 0 <= xp_12_1 <= 342.900126224594
 0 <= xp_13_0 <= 250.78733205815
 0 <= xp_14_0 <= 72.9686395568964
 0 <= xp_14_1 <= 145.937279113793
 0 <= xp_15_0 <= 504.723445685431
 0 <= xp_16_0 <= 2628.51101444886
 0 <= xp_17_0 <= 246.381224515232
 0 <= xp_17_1 <= 49.2762449030465
 0 <= xp_18_0 <= 178.660554240222
 0 <= xp_18_1 <= 178.660554240222
 0 <= xp_19_0 <= 702.440688380504
 0 <= xp_19_1 <= 351.220344190252
 0 <= xp_20_0 <= 127.656852781888
 0 <= xp_21_0 <= 273.222400738214
 0 <= xp_22_0 <= 1021.9873513007
 0 <= xp_22_1 <= 204.397470260141
 0 <= xp_23_0 <= 51.7580970426053
 0 <= xp_24_0 <= 226.05627681726
 0 <= xp_24_1 <= 113.02813840863
 0 <= xp_25_0 <= 576.161427535111
 0 <= xp_26_0 <= 15.2847105334943
 0 <= xp_27_0 <= 336.394830968923
 0 <= xp_28_0 <= 443.016073545916
 0 <= xp_28_1 <= 221.508036772958
 0 <= xp_29_0 <= 2437.02573527603
 0 <= xp_30_0 <= 182.563731393626
 0 <= xp_31_0 <= 189.779689156219
 0 <= xp_32_0 <= 2241.34208067769
 0 <= xp_33_0 <= 8024.60422931658
 0 <= xp_34_0 <= 254.329711323423
 0 <= xp_34_1 <= 254.329711323423
 0 <= xp_35_0 <= 259.905678685427
 0 <= xp_36_0 <= 317.567741170155
 0 <= xp_37_0 <= 363.290673538591
 0 <= xp_38_0 <= 333.377248631838
 0 <= xp_39_0 <= 1566.65002987516
 0 <= xp_40_0 <= 704.594542439945
 0 <= xp_40_1 <= 140.918908487989
 0 <= xp_41_0 <= 79.5723342366036
 0 <= xp_42_0 <= 301.495835244378
 0 <= xp_42_1 <= 75.3739588110944
 0 <= xp_42_2 <= 75.3739588110944
 0 <= xp_43_0 <= 489.963532080125
 0 <= xp_44_0 <= 456.638927140146
 0 <= xp_45_0 <= 42.3773519512332
 0 <= xp_46_0 <= 1598.72824211069
 0 <= xp_47_0 <= 875.230076986616
 0 <= xp_48_0 <= 2894.18945934436
 0 <= xp_49_0 <= 87.7066866235276
 0 <= xp_50_0 <= 650.857523647295
 0 <= xp_50_1 <= 130.171504729459
 0 <= xp_51_0 <= 706.573464189989
 0 <= xp_52_0 <= 659.604139117106
 0 <= xp_53_0 <= 189.123692995984
 0 <= xp_54_0 <= 3677.97367159411
 0 <= xp_55_0 <= 1180.20269188024
 0 <= xp_56_0 <= 95.3818416982866
 0 <= xp_57_0 <= 205.195598921761
 0 <= xp_58_0 <= 3772.85258290288
 0 <= xp_58_1 <= 754.570516580576
 0 <= xp_59_0 <= 10599.6515567062
 0 <= xp_60_0 <= 225.006682960882
 0 <= xp_60_1 <= 450.013365921765
 0 <= xp_61_0 <= 1204.96654692915
 0 <= xp_61_1 <= 1204.96654692915
 0 <= xp_62_0 <= 130.674435118973
 0 <= xp_63_0 <= 109.387359719321
 0 <= xp_63_1 <= 21.8774719438642
 0 <= xp_64_0 <= 990.226203875953
 0 <= xp_65_0 <= 433.504129222497
 0 <= xp_65_1 <= 86.7008258444994
 0 <= xp_66_0 <= 1672.98700744938
 0 <= xp_67_0 <= 402.912841616834
 0 <= xp_68_0 <= 978.13400798894
 0 <= xp_68_1 <= 244.533501997235
 0 <= xp_68_2 <= 244.533501997235
 0 <= xp_69_0 <= 1711.4283824392
 0 <= xp_70_0 <= 629.034718050117
 0 <= xp_71_0 <= 70.585186841373
 0 <= xp_72_0 <= 596.562908118444
 0 <= xp_73_0 <= 919.181819722415
 0 <= xp_74_0 <= 949.292043477239
 0 <= xp_75_0 <= 1756.69211749547
 0 <= xp_76_0 <= 1714.97076170447
 0 <= xp_77_0 <= 474.831887317353
 0 <= xp_77_1 <= 94.9663774634706
 0 <= xp_78_0 <= 4646.30053698752
 0 <= xp_78_1 <= 13938.9016109626
 0 <= xp_78_2 <= 9292.60107397505
 0 <= xp_79_0 <= 530.635294014746
 0 <= xp_79_1 <= 176.878431338249
 0 <= xp_79_2 <= 353.756862676497
 0 <= xp_80_0 <= 149.742056843161
 0 <= xp_80_1 <= 74.8710284215803
 0 <= xp_81_0 <= 216.588065571189
 0 <= xp_81_1 <= 43.3176131142379
 0 <= xp_82_0 <= 218.971518286713
 0 <= xp_83_0 <= 501.968261812441
 0 <= xp_84_0 <= 886.710009790742
 0 <= xp_85_0 <= 339.314013881972
 0 <= xp_85_1 <= 67.8628027763944
 0 <= xp_86_0 <= 113.880933416936
 0 <= xp_86_1 <= 56.9404667084682
 0 <= xp_87_0 <= 140.776775986605
 0 <= xp_88_0 <= 423.707919896309
 0 <= xp_89_0 <= 2212.93744693948
 0 <= xp_90_0 <= 14417.6148088947
 0 <= xp_90_1 <= 7208.80740444733
 0 <= xp_91_0 <= 1355.9112633994
 0 <= xp_91_1 <= 451.970421133135
 0 <= xp_91_2 <= 903.94084226627
 0 <= xp_92_0 <= 66.6492098799581
 0 <= xp_93_0 <= 130.018438958737
 0 <= xp_94_0 <= 196.908180764115
 0 <= xp_94_1 <= 39.381636152823
 0 <= xp_95_0 <= 61.1388421339774
 0 <= xp_96_0 <= 115.061726505361
 0 <= xp_97_0 <= 525.846522045024
 0 <= xp_98_0 <= 142.613565235265
 0 <= xp_99_0 <= 16.3343043898716
 0 <= xp_100_0 <= 501.77146296437
 0 <= xp_101_0 <= 249.278540889607
 0 <= xp_102_0 <= 74.7835622668822
 0 <= xp_103_0 <= 1436.36919245233
 0 <= xp_104_0 <= 131.592829743303
 0 <= xp_105_0 <= 1446.47153331996
 0 <= xp_106_0 <= 41.3277580948559
 0 <= xp_107_0 <= 448.701373601293
 0 <= xp_108_0 <= 564.725227808333
 0 <= xp_108_1 <= 141.181306952083
 0 <= xp_108_2 <= 141.181306952083
 0 <= xp_109_0 <= 642.963703185791
 0 <= xp_109_1 <= 321.481851592895
 0 <= xp_110_0 <= 132.904822063775
 0 <= xp_111_0 <= 2431.77776599414
 0 <= xp_111_1 <= 486.355553198829
 0 <= xp_112_0 <= 4670.49586203089
 0 <= xp_113_0 <= 424.429515672568
 0 <= xp_114_0 <= 2392.28679714795
 0 <= xp_115_0 <= 146.943139892821
 0 <= xp_115_1 <= 73.4715699464106
 0 <= xp_116_0 <= 132.784556101065
 0 <= xp_116_1 <= 26.556911220213
 0 <= xp_117_0 <= 1938.79665157693
 0 <= xp_118_0 <= 3147.46957681141
 0 <= xp_119_0 <= 62.6476333025197
 0 <= xp_120_0 <= 1803.8801079551
 0 <= xp_120_1 <= 360.77602159102
 0 <= xp_121_0 <= 75.3739588110944
 0 <= xp_122_0 <= 2269.54991556783
 0 <= xp_123_0 <= 512.660999224285
 0 <= xp_124_0 <= 137.365595953378
 0 <= xp_125_0 <= 18.1492270998574
 0 <= xp_125_1 <= 9.07461354992869
 0 <= xp_126_0 <= 4220.14356475967
 0 <= xp_126_1 <= 8440.28712951933
 0 <= xp_126_2 <= 8440.28712951933
 0 <= xp_126_3 <= 4220.14356475967
 0 <= xp_127_0 <= 191.835143791625
 0 <= xp_127_1 <= 383.67028758325
 0 <= xp_128_0 <= 337.674023481383
 0 <= xp_128_1 <= 67.5348046962765
 0 <= xp_129_0 <= 32.5811426250452
 0 <= xp_129_1 <= 16.2905713125226
 0 <= xp_130_0 <= 402.716042768763
 0 <= xp_131_0 <= 255.335572102451
 0 <= xp_131_1 <= 255.335572102451
 0 <= xp_131_2 <= 255.335572102451

End
